12 16 9 10
4 14 2 9 5 16 1 16 12 13 13 19 7 19 15 10 
7.52 3.29 14.99 6.55 8.66 13.49 0.47 6.57 4.27 9.04 2.54 2.84 2.87 2.32 10.39 4.27 
12.74 5.24 4.92 2.16 10.77 5.52 13.35 12.63 1.91 9.61 8.65 10.45 5.88 13.86 11.37 7.7 
3.41 2.58 6.37 7 13.01 12.07 7.17 10.02 2.21 12.91 15.87 7.81 14.83 0.72 5.03 6.89 
11.64 11.03 4.82 11.71 8.57 2.48 5.05 7 2.63 14.68 9.39 11.32 1.47 10.62 15.49 0.14 
4.6 9.95 14.69 7.57 12.71 10.92 11.84 5.95 6.49 1.2 2.52 4.16 14.14 12.01 8.47 2.76 
8.97 8.27 0.45 6.86 3.33 1.5 13.3 8.18 5.26 2.64 14.78 15.88 1.68 11.96 8.74 2.49 
9.8 14.56 12.37 1.92 13.77 6.72 15.23 8.14 4.61 5.79 7.67 4.62 11.02 9.91 2.28 0.26 
15.22 0.75 14.04 8.07 13.19 7.55 10.08 7.43 11.03 13.34 5.23 6.56 2.49 7.4 15.31 2.95 
1.14 5.64 11.2 6 9.88 7.83 7.44 3.45 12.06 0.18 13.1 5.51 13.13 15.38 8.77 11.52 
8 8 8 8 8 8 8 8 8 8 8 8 8 8 8 8 
9.27 6.23 10.29 8.13 14.2 14.39 8.96 7.86 6.02 8.51 13.01 8.67 0.06 12.88 14.34 4.85 
9.57 8.17 2.01 11.9 8.98 14.65 8.48 10.14 0.81 7.1 10.23 8.36 2.88 0.49 11.07 5.2 
1 1 1 1 1 1 1 1 1 1 1 1 1 1 1 1 
1 1 1 1 1 1 1 1 1 1 1 1 1 1 1 1 
1 1 1 1 1 1 1 1 1 1 1 1 1 1 1 1 
1 1 1 1 1 1 1 1 1 1 1 1 1 1 1 1 
1 1 1 1 1 1 1 1 1 1 1 1 1 1 1 1 
1 1 1 1 1 1 1 1 1 1 1 1 1 1 1 1 
1 1 1 1 1 1 1 1 1 1 1 1 1 1 1 1 
1 1 1 1 1 1 1 1 1 1 1 1 1 1 1 1 
1 1 1 1 1 1 1 1 1 1 1 1 1 1 1 1 
1 1 1 1 1 1 1 1 1 1 1 1 1 1 1 1 
1 1 1 1 1 1 1 1 1 1 1 1 1 1 1 1 
1 1 1 1 1 1 1 1 1 1 1 1 1 1 1 1 
0.01 0.01 0.01 0.01 0.01 0.01 0.01 0.01 0.01 0.01 0.01 0.01 0.01 0.01 0.01 0.01 
0.02 0.02 0.02 0.02 0.02 0.02 0.02 0.02 0.02 0.02 0.02 0.02 0.02 0.02 0.02 0.02 
0.03 0.03 0.03 0.03 0.03 0.03 0.03 0.03 0.03 0.03 0.03 0.03 0.03 0.03 0.03 0.03 
0.04 0.04 0.04 0.04 0.04 0.04 0.04 0.04 0.04 0.04 0.04 0.04 0.04 0.04 0.04 0.04 
0.05 0.05 0.05 0.05 0.05 0.05 0.05 0.05 0.05 0.05 0.05 0.05 0.05 0.05 0.05 0.05 
0.06 0.06 0.06 0.06 0.06 0.06 0.06 0.06 0.06 0.06 0.06 0.06 0.06 0.06 0.06 0.06 
0.07 0.07 0.07 0.07 0.07 0.07 0.07 0.07 0.07 0.07 0.07 0.07 0.07 0.07 0.07 0.07 
0.08 0.08 0.08 0.08 0.08 0.08 0.08 0.08 0.08 0.08 0.08 0.08 0.08 0.08 0.08 0.08 
0.09 0.09 0.09 0.09 0.09 0.09 0.09 0.09 0.09 0.09 0.09 0.09 0.09 0.09 0.09 0.09 
0.1 0.1 0.1 0.1 0.1 0.1 0.1 0.1 0.1 0.1 0.1 0.1 0.1 0.1 0.1 0.1 
0.5 0.5 0.5 0.5 0.5 0.5 0.5 0.5 0.5 0.5 0.5 0.5 0.5 0.5 0.5 0.5 
1 1 1 1 1 1 1 1 1 1 1 1 1 1 1 1 
